minizinc/sudoku_problems2/sudoku_p73.dzn
%
% sudoku_p73.dzn
% See http://www.hakank.org/minizinc/sudoku_gcc.mzn
% 
% This problem is problem 73 from
% Gecode's sudoku.cpp
% http://www.gecode.org/gecode-doc-latest/sudoku_8cpp-source.html
% 
x = array2d(1..n, 1..n, [   
% http://janko.at/Raetsel/Sudoku/520.a.htm
% 73
 13,  _,  _,  6,  _,  _,  1,  _,  2, 12,  3,  _,  _,  _,  _,  8,
  _,  _,  1,  _,  _,  3,  8,  6,  _,  _,  5,  _,  _,  9,  _,  _,
  _,  8, 12,  2,  _,  _,  _,  _,  _,  _, 13, 16, 11, 15,  1,  _,
  _,  _,  5,  _, 16,  _,  _,  _,  _,  _,  _,  1,  _, 10,  _, 13,
  _,  _, 10,  8,  7,  6,  _,  _,  4,  _,  _, 12,  5,  _,  _,  _,
  6,  4, 15,  _,  _,  _, 10, 13,  _,  2,  _,  5,  _,  _, 12,  _,
 14,  _,  _,  _,  _,  1, 11,  9,  _,  6, 10,  _,  _,  _,  2,  4,
 11,  _,  _,  _,  4,  _,  _,  _,  _,  8, 16,  _,  _,  _,  7,  _,
  _,  7,  _,  _,  _, 11, 13,  _,  _,  _,  _,  6,  _,  _,  _,  9,
 15, 16,  _,  _,  _, 12,  9,  _,  1, 13,  4,  _,  _,  _,  _, 10,
  _,  5,  _,  _, 14,  _,  6,  _, 16,  7,  _,  _,  _,  1, 13, 12,
  _,  _,  _, 11, 15,  _,  _, 16,  _,  _,  2, 10,  3,  7,  _,  _,
  5,  _,  8,  _,  6,  _,  _,  _,  _,  _,  _, 13,  _,  3,  _,  _,
  _, 14,  2, 13,  5, 10,  _,  _,  _,  _,  _,  _,  7, 12, 15,  _,
  _,  _,  7,  _,  _,  9,  _,  _, 10,  5,  1,  _,  _,  4,  _,  _,
  9,  _,  _,  _,  _, 13, 12,  1,  _,  4,  _,  _, 14,  _,  _,  5
]);

n = 16;


